/*********************************************
 * OPL 12.6.0.0 Data
 * Author: Adrian Rodriguez Bazaga, Pau Rodriguez Esmerats
 * Creation Date: 06/12/2017 at 23:03:04
 *********************************************/

nNurses=249;
maxConsec=2;
maxPresence=7;
maxHours=5;
minHours=1;
hours=24;
demand= [40 42 53 55 42 53 55 43 36 18 3 5 5 5 5 4 4 2 2 0 37 73 36 55  ];
